5 5
4 60 1 46 0 19 3 68 2 90
0 42 3 32 4 39 2 36 1 97
0 36 3 3 2 73 1 8 4 97
0 70 3 41 4 68 2 13 1 49
3 60 4 2 1 60 2 5 0 44
-1
0 1 3 5
0 1 2 3 5
0 2 3 4 5
0 3 5
0 2 4 5
-2
63 197 390
53 107 136 344
44 138 130 346
234 331
84 165 187

352 9
15 10 5 2 24
1 22 13 19 9
12 23 18 8 4
20 16 11 6 3
0 21 17 7 14
